
Log started (V11.0.0) Thu May 15 02:56:14 2008

Tried aggregator 1 time.
Reduced MIP has 210 rows, 2001 columns, and 4010 nonzeros.
Presolve time =    0.02 sec.
Clique table members: 200.
MIP emphasis: balance optimality and feasibility.
MIP search method: dynamic search.
Parallel mode: none, using 1 thread.
Root relaxation solution time =    0.03 sec.

        Nodes                                         Cuts/
   Node  Left     Objective  IInf  Best Integer     Best Node    ItCnt     Gap

*     0+    0                        22050.0000     2026.8758      265   90.81%
*     0+    0                         2040.0000     2026.8758      265    0.64%
      0     0     2027.0632    22     2040.0000      Fract: 7      287    0.63%
*     0+    0                         2036.0000     2027.0632      287    0.44%
      0     0     2027.1647    29     2036.0000       Cuts: 5      327    0.43%
      0     0     2027.2259    33     2036.0000    MIRcuts: 3      339    0.43%
*     0+    0                         2032.0000     2027.2259      339    0.23%
      0     0     2027.2621    37     2032.0000    MIRcuts: 3      361    0.23%
      0     0     2027.3110    42     2032.0000       Cuts: 3      385    0.23%
*     0+    0                         2031.0000     2027.3110      385    0.18%
      0     2     2028.0000    30     2031.0000     2027.3110      385    0.18%
    100    93     2029.0000    17     2031.0000     2028.0000     4228    0.15%
    200   154    infeasible           2031.0000     2028.0000    10701    0.15%
    300   245     2029.0000    14     2031.0000     2028.0000    13070    0.15%
    400   305     2028.0000    21     2031.0000     2028.0000    16477    0.15%
*   481+  241                         2030.0000     2028.0000    19329    0.10%
    500   249     2028.0000    20     2030.0000     2028.0000    19836    0.10%
    600   241     2028.0000    18     2030.0000     2028.0000    22296    0.10%
    700   240     2029.0000    20     2030.0000     2028.0000    24376    0.10%
    800   246     2028.0000    16     2030.0000     2028.0000    27196    0.10%
    900   328     2028.0000    26     2030.0000     2028.0000    29437    0.10%
   1000   413     2028.0000    20     2030.0000     2028.0000    31245    0.10%
Elapsed time =  10.19 sec. (tree size =  0.30 MB, solutions = 6)
   1100   497     2029.0000    18     2030.0000     2028.0000    33239    0.10%
   1200   565    infeasible           2030.0000     2028.0000    35264    0.10%
   1300   633    infeasible           2030.0000     2028.0000    37897    0.10%
   1400   667     2029.0000    18     2030.0000     2028.0000    44939    0.10%
   1500   733     2028.0000    23     2030.0000     2028.0000    48403    0.10%
   1600   798     2029.0000    12     2030.0000     2028.0000    51912    0.10%
   1700   828     2029.0000    18     2030.0000     2028.0000    57018    0.10%
   1800   906     2029.0000    24     2030.0000     2028.0000    59103    0.10%
   1900   981     2029.0000    22     2030.0000     2028.0000    61743    0.10%
   2000  1043     2028.0000    20     2030.0000     2028.0000    66107    0.10%
Elapsed time =  17.63 sec. (tree size =  0.85 MB, solutions = 6)
   2100  1121     2028.0000    14     2030.0000     2028.0000    68584    0.10%
   2200  1191     2029.0000    17     2030.0000     2028.0000    70660    0.10%
   2300  1268     2028.0000    30     2030.0000     2028.0000    72976    0.10%
   2400  1340    infeasible           2030.0000     2028.0000    75544    0.10%
   2500  1398    infeasible           2030.0000     2028.0000    79337    0.10%
   2600  1468     2029.0000    24     2030.0000     2028.0000    82164    0.10%
   2700  1541     2029.0000    25     2030.0000     2028.0000    85923    0.10%
   2800  1613     2029.0000    36     2030.0000     2028.0000    89279    0.10%
   2900  1688    infeasible           2030.0000     2028.0000    92044    0.10%
   3000  1761    infeasible           2030.0000     2028.0000    93725    0.10%
Elapsed time =  24.08 sec. (tree size =  1.46 MB, solutions = 6)
   3100  1837     2029.0000    10     2030.0000     2028.0000    96600    0.10%
   3200  1877    infeasible           2030.0000     2028.0000   103812    0.10%
   3300  1953     2029.0000    26     2030.0000     2028.0000   106845    0.10%
   3400  2028     2029.0000    24     2030.0000     2028.0000   110582    0.10%
*  3481+  543                         2029.0000     2028.0000   112638    0.05%
   3500   545    infeasible           2029.0000     2028.0000   114714    0.05%
   3600   549    infeasible           2029.0000     2028.0000   131525    0.05%
   3700   553     2028.0000    18     2029.0000     2028.0000   151300    0.05%
   3800   591    infeasible           2029.0000     2028.0000   157691    0.05%
   3900   573    infeasible           2029.0000     2028.0000   177967    0.05%
   4000   569    infeasible           2029.0000     2028.0000   196304    0.05%
Elapsed time =  49.83 sec. (tree size =  0.46 MB, solutions = 7)
   4100   549    infeasible           2029.0000     2028.0000   220879    0.05%
   4200   547     2028.0000    33     2029.0000     2028.0000   240765    0.05%
   4300   500    infeasible           2029.0000     2028.0000   270010    0.05%
   4400   486    infeasible           2029.0000     2028.0000   294295    0.05%
   4500   513     2028.0000    63     2029.0000     2028.0000   305902    0.05%
   4600   500     2028.0000    74     2029.0000     2028.0000   331792    0.05%
   4700   440     2028.0000    61     2029.0000     2028.0000   363341    0.05%
   4800   398    infeasible           2029.0000     2028.0000   393883    0.05%
   4900   416     2028.0000    38     2029.0000     2028.0000   410107    0.05%
*  4970     0      integral     0     2028.0000     2028.0000   420553    0.00%

Cover cuts applied:  663
Mixed integer rounding cuts applied:  15
Gomory fractional cuts applied:  6

Solution pool: 8 solutions saved.

MIP - Integer optimal solution:  Objective = 2.0280000000e+003
Solution time =  126.22 sec.  Iterations = 420553  Nodes = 4971


Incumbent solution
Variable Name           Solution Value
Cmax                       2028.000000
X_1_4                         1.000000
X_2_9                         1.000000
X_3_10                        1.000000
X_4_6                         1.000000
X_5_3                         0.000000
X_5_4                         1.000000
X_6_1                         1.000000
X_7_6                         1.000000
X_8_7                         1.000000
X_9_2                         1.000000
X_10_10                       1.000000
X_11_1                        1.000000
X_12_1                        1.000000
X_13_9                        1.000000
X_14_2                        1.000000
X_15_7                        1.000000
X_16_3                        1.000000
X_17_3                        1.000000
X_18_2                        1.000000
X_19_7                        1.000000
X_20_9                        1.000000
X_21_9                        1.000000
X_22_9                        1.000000
X_23_5                        1.000000
X_24_1                        1.000000
X_25_8                        1.000000
X_26_10                       1.000000
X_27_9                        1.000000
X_28_1                        1.000000
X_29_5                        1.000000
X_30_4                        1.000000
X_31_9                        1.000000
X_32_5                        1.000000
X_33_1                        1.000000
X_34_10                       1.000000
X_35_8                        1.000000
X_36_4                        1.000000
X_37_6                        1.000000
X_38_6                        1.000000
X_39_9                        1.000000
X_40_8                        1.000000
X_41_4                        1.000000
X_42_9                        1.000000
X_43_7                        1.000000
X_44_10                       1.000000
X_45_5                        1.000000
X_46_5                        1.000000
X_47_6                        1.000000
X_48_9                        1.000000
X_49_7                        1.000000
X_50_7                        1.000000
X_51_10                       1.000000
X_52_8                        1.000000
X_53_5                        1.000000
X_54_6                        1.000000
X_55_4                        1.000000
X_56_8                        1.000000
X_57_2                       -0.000000
X_57_4                        1.000000
X_58_2                        1.000000
X_59_5                        1.000000
X_60_6                        1.000000
X_61_2                        1.000000
X_62_4                        1.000000
X_63_2                        1.000000
X_64_9                        1.000000
X_65_2                        1.000000
X_66_9                        1.000000
X_67_3                        1.000000
X_68_2                        1.000000
X_69_1                        1.000000
X_70_4                        1.000000
X_71_1                        1.000000
X_72_6                        1.000000
X_73_1                        1.000000
X_74_3                        1.000000
X_75_1                        1.000000
X_76_3                        1.000000
X_77_2                        1.000000
X_78_6                        1.000000
X_79_1                        1.000000
X_79_3                       -0.000000
X_80_4                        1.000000
X_81_4                        1.000000
X_82_10                       1.000000
X_83_2                        1.000000
X_84_8                        1.000000
X_85_7                        1.000000
X_86_7                        1.000000
X_87_6                        1.000000
X_88_6                        1.000000
X_89_8                        1.000000
X_90_3                        1.000000
X_91_1                        1.000000
X_92_3                        1.000000
X_93_4                        1.000000
X_94_8                        1.000000
X_95_5                        1.000000
X_96_10                       1.000000
X_97_5                        1.000000
X_98_7                        1.000000
X_99_2                        1.000000
X_100_10                      1.000000
X_101_3                       1.000000
X_102_6                       1.000000
X_103_8                       1.000000
X_104_3                       1.000000
X_105_6                       1.000000
X_106_9                       1.000000
X_107_5                       1.000000
X_108_9                       1.000000
X_109_5                       1.000000
X_110_2                       1.000000
X_111_9                       1.000000
X_112_3                       1.000000
X_113_5                       1.000000
X_114_5                       1.000000
X_114_8                      -0.000000
X_115_10                      1.000000
X_116_1                       1.000000
X_117_7                       1.000000
X_118_6                       1.000000
X_119_9                       1.000000
X_120_7                       1.000000
X_121_9                       1.000000
X_122_4                       1.000000
X_123_10                      1.000000
X_124_8                       1.000000
X_125_1                       1.000000
X_126_1                       1.000000
X_127_4                       1.000000
X_128_3                       1.000000
X_128_7                      -0.000000
X_129_10                      1.000000
X_130_10                      1.000000
X_131_2                      -0.000000
X_131_5                      -0.000000
X_131_8                       1.000000
X_132_5                       1.000000
X_133_7                       1.000000
X_134_7                       1.000000
X_135_3                       1.000000
X_136_9                       1.000000
X_137_7                       1.000000
X_138_4                       1.000000
X_139_3                      -0.000000
X_139_7                       1.000000
X_140_4                       1.000000
X_141_3                       1.000000
X_142_6                       1.000000
X_143_4                       1.000000
X_144_1                       1.000000
X_145_2                       1.000000
X_146_10                      1.000000
X_147_1                       1.000000
X_148_10                      1.000000
X_149_2                       1.000000
X_150_9                       1.000000
X_151_3                       1.000000
X_152_3                       1.000000
X_153_4                       1.000000
X_154_6                       1.000000
X_155_5                       1.000000
X_156_8                       1.000000
X_157_7                       1.000000
X_158_8                       1.000000
X_159_6                       1.000000
X_160_10                      1.000000
X_161_10                      1.000000
X_162_10                      1.000000
X_163_5                       1.000000
X_164_6                       1.000000
X_165_3                       1.000000
X_166_7                       1.000000
X_167_5                       1.000000
X_168_8                       1.000000
X_169_1                       1.000000
X_170_8                       1.000000
X_171_7                       1.000000
X_172_3                       1.000000
X_173_2                       1.000000
X_174_2                       1.000000
X_175_2                       1.000000
X_175_5                      -0.000000
X_176_2                       1.000000
X_176_8                      -0.000000
X_177_2                       1.000000
X_178_10                      1.000000
X_179_8                       1.000000
X_180_1                       1.000000
X_181_7                       1.000000
X_182_6                       1.000000
X_183_8                       1.000000
X_184_5                       1.000000
X_185_8                       1.000000
X_186_2                       1.000000
X_187_3                       1.000000
X_188_3                       1.000000
X_189_1                       1.000000
X_190_4                       1.000000
X_191_3                       1.000000
X_192_9                       1.000000
X_193_8                       1.000000
X_194_6                       1.000000
X_195_2                      -0.000000
X_195_5                       1.000000
X_196_10                      1.000000
X_197_7                       1.000000
X_198_5                       1.000000
X_199_8                       1.000000
X_200_4                       1.000000
All other variables in the range 1-2001 are 0.
